[[70, 80, 69, 67, 68, 77, 78, 79, 88, 89, 90, 99, 98, 97, 96], [87, 95, 86, 85, 76, 84, 94, 93, 92, 91, 83, 82, 73], [75, 74, 64, 65, 66, 59, 58, 57, 56, 55, 46, 47, 49, 48], [38, 39, 40, 50, 41, 32, 31, 30, 29, 37, 28, 19], [21, 22, 13, 20, 11, 10, 2, 12, 3, 4, 14, 5, 6, 7, 8], [9, 18, 17, 16, 15, 23, 24, 25, 26, 27, 35, 36], [44, 34, 33, 42, 43, 45, 54, 53, 52, 51, 60, 61, 62, 63, 72, 71, 81]]